100
32
11
13
16
4
1
7
18
17
7
18
17
1
18
19
4
3
22
6
3
5
18
17
9
18
6
14
28
21
19
32
5
21
30
19
4
3
15
3
29
7
23
23
2
6
23
13
22
26
19
5
30
5
22
12
2
24
26
8
1
1
5
22
8
24
3
2
2
3
14
23
9
6
12
1
24
3
12
11
14
1
3
11
14
29
2
5
6
22
4
16
11
13
20
2
12
28
5
23
1
13